GLPSOL--GLPK LP/MIP Solver 5.0
Parameter(s) specified in the command line:
 --lp ../modeles/20_169.lp --log 20_169.log
Reading problem data from '../modeles/20_169.lp'...
3461 rows, 6800 columns, 23760 non-zeros
3380 integer variables, all of which are binary
10287 lines were read
GLPK Integer Optimizer 5.0
3461 rows, 6800 columns, 23760 non-zeros
3380 integer variables, all of which are binary
Preprocessing...
3320 constraint coefficient(s) were reduced
3461 rows, 6780 columns, 23740 non-zeros
3380 integer variables, all of which are binary
Scaling...
 A: min|aij| =  1.401e-04  max|aij| =  4.000e+00  ratio =  2.856e+04
GM: min|aij| =  7.692e-02  max|aij| =  1.300e+01  ratio =  1.690e+02
EQ: min|aij| =  5.917e-03  max|aij| =  1.000e+00  ratio =  1.690e+02
2N: min|aij| =  4.482e-03  max|aij| =  1.771e+00  ratio =  3.951e+02
Constructing initial basis...
Size of triangular part is 3461
Solving LP relaxation...
GLPK Simplex Optimizer 5.0
3461 rows, 6780 columns, 23740 non-zeros
      0: obj =   4.000000000e+01 inf =   9.950e+01 (41)
Perturbing LP to avoid stalling [199]...
    259: obj =   4.986169468e-01 inf =   0.000e+00 (0)
Removing LP perturbation [873]...
*   873: obj =  -4.470825115e+00 inf =   1.441e-14 (0) 1
OPTIMAL LP SOLUTION FOUND
Integer optimization begins...
Long-step dual simplex will be used
+   873: mip =     not found yet >=              -inf        (1; 0)
+   924: >>>>>  -4.470825115e+00 >=  -4.470825115e+00   0.0% (51; 0)
+   924: mip =  -4.470825115e+00 >=     tree is empty   0.0% (0; 101)
INTEGER OPTIMAL SOLUTION FOUND
Time used:   0.4 secs
Memory used: 10.0 Mb (10484024 bytes)
